(declare-fun e () String)
(declare-fun c () String)
(declare-fun g () String)
(declare-fun b () String)
(declare-fun d () String)
(declare-fun f () String)
(declare-fun a () String)
(declare-fun h () String)
(assert (= (str.++ c b "c" e "cg") (str.++ "cb" a "aa")))
(assert (= f (str.++ "g" g "e" f h h)))
(assert (= (str.++ c "f" d e "f" b) (str.++ "e" g "eaf")))

(check-sat)
